CMD:
./solvers/bin/cadical --plain --no-reduce -t 1600 ./data/cnfs//beembrptwo3b2/beembrptwo3b2.97.cnf

c --- [ banner ] -------------------------------------------------------------
c 
c CaDiCaL SAT Solver
c Copyright (c) 2016-2024
c A. Biere, M. Fleury, N. Froleyks, K. Fazekas, F. Pollitt, T. Faller
c JKU Linz, University of Freiburg, TU Wien
c 
c Version 2.1.3 5296d3d2a9bf48c154ab2acb5e44625776d821bf
c g++ (Gentoo 12.3.1_p20230526 p2) 12.3.1 20230526 -Wall -Wextra -O3 -DNDEBUG
c Sat Aug 9 07:26:21 PDT 2025 Linux cedar2.int.cedar.computecanada.ca 5.14.0-362.24.2.el9_3.x86_64 x86_64
c 
c --- [ limit ] --------------------------------------------------------------
c 
c setting time limit to 1600 seconds real time (due to '-t 1600')
c 
c --- [ parsing input ] ------------------------------------------------------
c 
c reading DIMACS file from './data/cnfs//beembrptwo3b2/beembrptwo3b2.97.cnf'
c opening file to read './data/cnfs//beembrptwo3b2/beembrptwo3b2.97.cnf'
c found 'p cnf 415356 1169172' header
c parsed 1169172 clauses in 0.22 seconds process time
c 
c --- [ options ] ------------------------------------------------------------
c 
c   --compact=false                (different from default 'true')
c   --decompose=false              (different from default 'true')
c   --deduplicate=false            (different from default 'true')
c   --elim=false                   (different from default 'true')
c   --probe=false                  (different from default 'true')
c   --reduce=false                 (different from default 'true')
c   --subsume=false                (different from default 'true')
c   --ternary=false                (different from default 'true')
c   --transred=false               (different from default 'true')
c   --vivify=false                 (different from default 'true')
c 
c --- [ solving ] ------------------------------------------------------------
c 
c time measured in process time since initialization
c 
c  seconds   reductions  redundant   irredundant
c          MB    restarts       trail        variables
c           level   conflicts       glue           remaining
c 
c *  0.22 191  0 0   0    0    0  0% 0 1167347 240570 58%
c {  0.24 192  0 0   0    0    0  0% 0 1167347 240570 58%
c i  0.30 194 256 0   0   36   35 71% 1 1167347 240414 58%
c i  0.35 194 180 0   7   86   82 60% 2 1167347 240347 58%
c i  0.35 194 178 0   7   87   82 60% 2 1167347 240319 58%
c i  0.35 194 176 0   7   88   82 60% 2 1167347 240155 58%
c i  0.35 194 167 0   7   94   86 59% 2 1167347 239827 58%
c i  0.36 194 165 0   7   95   86 58% 2 1167347 239743 58%
c i  0.38 194 133 0  13  138  126 55% 2 1167347 239640 58%
c i  0.38 194 132 0  13  139  126 55% 2 1167347 238875 58%
c i  0.46 194 111 0  26  207  186 53% 3 1167347 238866 58%
c i  0.50 194 98 0  37  244  220 52% 3 1167347 238857 58%
c i  0.52 194 88 0  45  300  267 51% 3 1167347 238741 57%
c i  0.52 194 88 0  45  302  268 51% 3 1167347 238726 57%
c i  0.52 194 88 0  45  303  268 51% 3 1167347 238711 57%
c i  0.52 194 87 0  45  307  271 51% 3 1167347 238695 57%
c i  0.52 194 87 0  45  312  273 51% 3 1167347 238637 57%
c i  0.52 194 85 0  45  319  278 50% 3 1167347 238521 57%
c i  0.52 194 79 0  46  352  308 50% 3 1167347 238382 57%
c i  0.52 194 79 0  46  353  308 50% 3 1167347 238366 57%
c 
c  seconds   reductions  redundant   irredundant
c          MB    restarts       trail        variables
c           level   conflicts       glue           remaining
c 
c i  0.52 194 78 0  46  358  311 50% 3 1167347 238312 57%
c i  0.52 194 78 0  46  359  311 50% 3 1167347 238296 57%
c i  0.52 194 78 0  46  360  311 50% 3 1167347 238280 57%
c i  0.52 194 77 0  46  361  311 50% 3 1167347 238168 57%
c i  0.54 194 72 0  53  424  368 49% 3 1167347 238076 57%
c i  0.54 194 72 0  54  425  368 49% 3 1167347 238011 57%
c i  0.56 194 71 0  56  436  377 49% 3 1167347 237857 57%
c i  0.57 194 71 0  56  437  377 49% 3 1167347 237855 57%
c i  0.59 194 76 0  66  477  414 49% 3 1167347 237827 57%
c i  0.59 194 75 0  67  483  418 49% 3 1167347 237772 57%
c i  0.60 194 73 0  72  497  431 49% 3 1167347 237602 57%
c i  0.60 194 73 0  72  500  433 49% 3 1167347 237461 57%
c i  0.60 194 73 0  72  501  433 49% 3 1167347 237447 57%
c i  0.67 194 68 0  78  614  535 50% 3 1167347 237408 57%
c i  0.67 194 68 0  78  615  535 50% 3 1167347 237396 57%
c i  0.67 194 68 0  78  619  538 50% 3 1167347 237394 57%
c i  0.68 194 67 0  78  637  555 50% 3 1167347 237387 57%
c i  0.68 194 67 0  78  638  555 50% 3 1167347 237380 57%
c i  0.68 194 67 0  78  639  555 50% 3 1167347 237373 57%
c i  0.74 194 67 0  89  719  621 49% 3 1167347 236737 57%
c 
c  seconds   reductions  redundant   irredundant
c          MB    restarts       trail        variables
c           level   conflicts       glue           remaining
c 
c i  0.74 194 67 0  90  720  621 49% 3 1167347 236728 57%
c i  0.76 194 69 0  96  777  670 49% 4 1167347 236718 57%
c i  0.77 194 70 0  99  789  680 49% 4 1167347 236703 57%
c i  0.77 194 77 0 102  807  693 49% 4 1167347 236667 57%
... skipped 1116 lines ...
c 
c  seconds   reductions      redundant  irredundant
c          MB    restarts           trail       variables
c           level     conflicts         glue          remaining
c 
c i 85.89 234 37 0 9422 112613 94273 58% 8 524090 187497 45%
c i 85.97 234 37 0 9422 112685 94341 59% 8 524090 187493 45%
c i 85.97 234 37 0 9422 112686 94341 59% 8 524090 187492 45%
c i 85.97 234 37 0 9422 112696 94350 59% 8 524090 187491 45%
c i 85.97 234 37 0 9422 112697 94350 59% 8 524090 187486 45%
c i 85.97 234 37 0 9422 112698 94350 59% 8 524090 187485 45%
c i 85.97 234 37 0 9422 112700 94351 59% 8 524090 187484 45%
c i 86.29 234 37 0 9467 112994 94586 59% 8 524090 186910 45%
c i 86.41 234 37 0 9486 113074 94659 59% 8 524090 184291 44%
c i 86.65 234 37 0 9508 113266 94823 59% 8 524090 184207 44%
c i 86.65 234 37 0 9508 113268 94823 59% 8 524090 184031 44%
c i 87.82 234 37 0 9648 114953 96359 59% 8 524090 184007 44%
c i 88.17 234 37 0 9689 115459 96783 59% 8 524090 183899 44%
c i 88.82 234 37 0 9768 116121 97311 59% 8 524090 183898 44%
c i 89.54 234 36 0 9867 116930 98025 59% 8 524090 183884 44%
c i 89.90 234 36 0 9917 117168 98244 59% 8 524090 183882 44%
c i 90.07 234 36 0 9964 117375 98432 59% 8 524090 183873 44%
c i 91.95 234 36 0 10275 119543 100423 59% 8 524090 183809 44%
c i 92.05 234 36 0 10275 119765 100627 59% 8 524090 183784 44%
c i 92.16 234 36 0 10282 119888 100744 59% 8 524090 183552 44%
c 
c  seconds   reductions       redundant  irredundant
c          MB     restarts           trail       variables
c           level      conflicts         glue          remaining
c 
c W 92.55 235 36 0 10294 120030 95133 59% 8 476665 183552 44%
c i 93.66 235 36 0 10496 121804 96751 59% 8 476665 183451 44%
c i 93.91 235 36 0 10531 121973 96887 59% 8 476665 183443 44%
c i 95.66 235 35 0 10750 123810 98335 59% 8 476665 183431 44%
c i 96.08 235 35 0 10779 124264 98680 59% 8 476665 183296 44%
c i 96.13 235 35 0 10779 124377 98766 59% 8 476665 183277 44%
c i 97.14 235 34 0 10809 125665 99803 59% 8 476665 180490 43%
c i 97.38 235 34 0 10809 126001 100049 59% 8 476665 180295 43%
c i 97.43 235 34 0 10809 126044 100076 59% 8 476665 178434 43%
c i 97.43 235 34 0 10809 126045 100076 59% 8 476665 178396 43%
c i 97.44 235 34 0 10809 126049 100078 59% 8 476665 175733 42%
c i 97.44 235 34 0 10809 126054 100079 59% 8 476665 167978 40%
c i 97.45 235 34 0 10809 126055 100079 59% 8 476665 167596 40%
c i 97.45 235 34 0 10809 126056 100079 59% 8 476665 167437 40%
c } 97.45 235 34 0 10809 126061 100081 59% 8 476665 164439 40%
c 0 97.45 235 34 0 10809 126061 100081 59% 8 476665 164439 40%
c 
c --- [ result ] -------------------------------------------------------------
c 
s UNSATISFIABLE
c 
c --- [ run-time profiling ] -------------------------------------------------
c 
c process time taken by individual solving procedures
c (percentage relative to process time for solving)
c 
c        97.23  100.00% search
c        67.89   69.82% unstable
c        27.91   28.71% stable
c         1.41    1.45% walk
c         0.22    0.23% parse
c         0.02    0.02% lucky
c         0.00    0.00% simplify
c   =================================
c        97.23   99.77% solve
c 
c last line shows process time for solving
c (percentage relative to total process time)
c 
c --- [ statistics ] ---------------------------------------------------------
c 
c chronological:             45961        36.46 %  of conflicts
c conflicts:                126061      1296.51    per second
c decisions:                574492      5908.53    per second
c fixed:                    250917        60.41 %  of all variables
c learned:                  119151        94.52 %  per conflict
c learned_lits:            9978057       100.00 %  learned literals
c minimized:                     0         0.00 %  learned literals
c shrunken:                1692075        16.96 %  learned literals
c minishrunken:            2191435        21.96 %  learned literals
c otfs:                        760         0.60 %  of conflict
c propagations:          653102136         6.72 M  per second
c rephased:                     15      8404.07    interval
c restarts:                  10809        11.66    interval
c stabilizing:                   3        33.31 %  of conflicts
c subsumed:                   6593         0.51 %  of all clauses
c strengthened:                752         0.06 %  of all clauses
c walked:                        4     31515.25    interval
c 
c seconds are measured in process time for solving
c 
c --- [ resources ] ----------------------------------------------------------
c 
c total process time since initialization:        97.45    seconds
c total real time since initialization:           97.91    seconds
c maximum resident set size of process:          265.58    MB
c 
c --- [ shutting down ] ------------------------------------------------------
c 
c exit 20
